db/data/1662577363244228629173628863416518240.z3.out
-------------------
2500.147736596
